p edge 150 1118
e 1 14
e 1 21
e 1 37
e 1 45
e 1 53
e 1 63
e 1 69
e 1 77
e 1 115
e 1 117
e 1 134
e 1 148
e 2 4
e 2 6
e 2 9
e 2 11
e 2 18
e 2 21
e 2 27
e 2 69
e 2 72
e 2 140
e 2 148
e 3 16
e 3 29
e 3 43
e 3 50
e 3 61
e 3 68
e 3 70
e 3 89
e 3 105
e 3 111
e 3 126
e 3 137
e 3 149
e 4 5
e 4 6
e 4 7
e 4 9
e 4 13
e 4 29
e 4 39
e 4 87
e 4 94
e 4 97
e 4 123
e 4 127
e 4 129
e 4 137
e 4 146
e 4 150
e 5 10
e 5 21
e 5 28
e 5 34
e 5 44
e 5 66
e 5 76
e 5 81
e 5 88
e 5 92
e 5 110
e 5 122
e 5 125
e 6 11
e 6 14
e 6 25
e 6 39
e 6 68
e 6 84
e 6 103
e 6 114
e 6 131
e 6 133
e 6 135
e 6 136
e 6 137
e 6 142
e 7 12
e 7 18
e 7 21
e 7 24
e 7 29
e 7 42
e 7 44
e 7 49
e 7 61
e 7 68
e 7 73
e 7 81
e 7 96
e 7 101
e 7 126
e 7 134
e 7 150
e 8 20
e 8 40
e 8 78
e 8 83
e 8 85
e 8 92
e 8 104
e 8 105
e 8 109
e 8 124
e 8 128
e 8 132
e 8 149
e 9 13
e 9 34
e 9 40
e 9 68
e 9 69
e 9 85
e 9 96
e 9 104
e 9 109
e 9 124
e 9 128
e 9 136
e 9 147
e 10 18
e 10 23
e 10 32
e 10 40
e 10 53
e 10 54
e 10 63
e 10 73
e 10 88
e 10 94
e 10 108
e 10 122
e 10 138
e 10 140
e 10 142
e 11 12
e 11 17
e 11 23
e 11 24
e 11 38
e 11 53
e 11 62
e 11 70
e 11 87
e 11 101
e 11 141
e 11 150
e 12 13
e 12 20
e 12 34
e 12 70
e 12 76
e 12 80
e 12 101
e 12 107
e 12 111
e 12 113
e 12 121
e 12 125
e 12 129
e 12 130
e 13 17
e 13 19
e 13 28
e 13 29
e 13 41
e 13 70
e 13 78
e 13 103
e 13 124
e 13 146
e 13 150
e 14 24
e 14 26
e 14 37
e 14 50
e 14 52
e 14 60
e 14 65
e 14 66
e 14 74
e 14 78
e 14 81
e 14 92
e 14 98
e 14 103
e 14 111
e 14 114
e 14 115
e 14 116
e 14 127
e 14 131
e 14 134
e 14 136
e 14 142
e 14 144
e 15 22
e 15 35
e 15 46
e 15 47
e 15 49
e 15 65
e 15 67
e 15 77
e 15 78
e 15 86
e 15 101
e 15 107
e 15 121
e 15 125
e 15 126
e 15 129
e 15 130
e 15 131
e 15 132
e 15 143
e 15 146
e 15 148
e 16 19
e 16 20
e 16 26
e 16 41
e 16 46
e 16 49
e 16 57
e 16 69
e 16 78
e 16 80
e 16 95
e 16 113
e 16 120
e 16 141
e 16 146
e 17 29
e 17 46
e 17 61
e 17 80
e 17 91
e 17 99
e 17 122
e 17 128
e 17 135
e 18 55
e 18 56
e 18 60
e 18 69
e 18 78
e 18 79
e 18 106
e 18 111
e 18 128
e 19 37
e 19 149
e 20 27
e 20 37
e 20 58
e 20 96
e 20 97
e 20 106
e 20 112
e 20 115
e 20 132
e 20 135
e 20 139
e 21 29
e 21 50
e 21 51
e 21 52
e 21 61
e 21 72
e 21 96
e 21 97
e 21 104
e 21 109
e 21 112
e 21 122
e 21 127
e 21 132
e 21 134
e 22 24
e 22 32
e 22 33
e 22 39
e 22 49
e 22 58
e 22 76
e 22 82
e 22 101
e 22 110
e 22 127
e 22 131
e 22 133
e 22 147
e 23 27
e 23 61
e 23 70
e 23 71
e 23 75
e 23 90
e 23 100
e 23 105
e 23 125
e 23 126
e 23 132
e 23 138
e 23 141
e 23 148
e 24 32
e 24 40
e 24 46
e 24 49
e 24 62
e 24 64
e 24 72
e 24 78
e 24 97
e 24 115
e 24 128
e 24 148
e 25 51
e 25 57
e 25 67
e 25 71
e 25 74
e 25 82
e 25 90
e 25 95
e 25 104
e 25 110
e 25 114
e 25 122
e 25 136
e 26 32
e 26 40
e 26 50
e 26 51
e 26 61
e 26 72
e 26 77
e 26 88
e 26 100
e 26 102
e 26 103
e 26 107
e 26 119
e 26 142
e 27 31
e 27 37
e 27 61
e 27 62
e 27 74
e 27 80
e 27 81
e 27 82
e 27 84
e 27 88
e 27 100
e 27 125
e 27 142
e 27 148
e 27 150
e 28 34
e 28 35
e 28 45
e 28 76
e 28 99
e 28 112
e 28 119
e 28 121
e 28 131
e 29 66
e 29 70
e 29 71
e 29 81
e 29 83
e 29 91
e 29 95
e 29 120
e 29 136
e 29 145
e 29 150
e 30 76
e 30 78
e 30 88
e 30 108
e 30 110
e 30 114
e 30 118
e 30 120
e 31 32
e 31 42
e 31 43
e 31 58
e 31 70
e 31 87
e 31 102
e 31 107
e 31 114
e 31 117
e 31 124
e 31 125
e 31 133
e 31 137
e 31 147
e 32 34
e 32 47
e 32 70
e 32 94
e 32 98
e 32 114
e 32 115
e 32 119
e 32 127
e 32 136
e 32 144
e 33 42
e 33 53
e 33 73
e 33 96
e 33 102
e 33 110
e 33 115
e 33 140
e 33 146
e 34 50
e 34 83
e 34 91
e 34 105
e 34 129
e 34 138
e 34 146
e 34 149
e 35 55
e 35 56
e 35 75
e 35 88
e 35 91
e 35 95
e 35 124
e 35 130
e 36 44
e 36 55
e 36 61
e 36 63
e 36 65
e 36 68
e 36 78
e 36 85
e 36 88
e 36 93
e 36 94
e 36 95
e 36 104
e 36 113
e 36 115
e 36 116
e 36 128
e 37 44
e 37 45
e 37 67
e 37 91
e 37 138
e 37 147
e 38 63
e 38 87
e 38 98
e 38 114
e 38 115
e 38 141
e 38 145
e 39 47
e 39 53
e 39 59
e 39 61
e 39 64
e 39 82
e 39 89
e 39 95
e 39 97
e 39 121
e 39 130
e 39 136
e 40 50
e 40 58
e 40 65
e 40 71
e 40 72
e 40 83
e 40 103
e 40 111
e 40 128
e 40 129
e 40 133
e 40 137
e 40 138
e 40 142
e 40 143
e 41 46
e 41 80
e 41 88
e 41 101
e 41 103
e 41 116
e 41 135
e 41 136
e 41 139
e 41 142
e 41 143
e 42 46
e 42 53
e 42 54
e 42 57
e 42 58
e 42 77
e 42 79
e 42 81
e 42 84
e 42 90
e 42 110
e 42 116
e 42 122
e 42 148
e 43 45
e 43 50
e 43 51
e 43 58
e 43 63
e 43 73
e 43 78
e 43 86
e 43 92
e 43 103
e 43 108
e 43 134
e 43 136
e 43 137
e 43 144
e 44 45
e 44 46
e 44 63
e 44 77
e 44 94
e 44 117
e 44 134
e 44 137
e 45 60
e 45 63
e 45 82
e 45 91
e 45 104
e 45 117
e 45 127
e 45 148
e 46 54
e 46 58
e 46 71
e 46 80
e 46 84
e 46 90
e 46 91
e 46 97
e 46 99
e 46 111
e 46 117
e 47 50
e 47 56
e 47 69
e 47 79
e 47 80
e 47 85
e 47 98
e 47 100
e 47 101
e 48 49
e 48 52
e 48 83
e 48 86
e 48 94
e 48 114
e 48 117
e 48 128
e 48 129
e 48 133
e 48 145
e 48 148
e 49 56
e 49 57
e 49 62
e 49 63
e 49 96
e 49 99
e 49 103
e 49 105
e 49 109
e 49 135
e 49 143
e 49 144
e 49 146
e 50 55
e 50 63
e 50 127
e 50 134
e 50 139
e 50 142
e 50 145
e 51 65
e 51 66
e 51 70
e 51 81
e 51 90
e 51 120
e 51 138
e 52 62
e 52 64
e 52 79
e 52 86
e 52 89
e 52 95
e 52 103
e 52 106
e 52 145
e 53 82
e 53 99
e 53 114
e 53 130
e 53 132
e 53 140
e 53 141
e 54 61
e 54 71
e 54 83
e 54 97
e 54 122
e 54 129
e 54 132
e 54 141
e 54 143
e 54 145
e 55 68
e 55 91
e 55 104
e 55 109
e 55 120
e 55 134
e 55 140
e 55 143
e 56 58
e 56 59
e 56 81
e 56 84
e 56 92
e 56 95
e 56 107
e 56 136
e 56 137
e 57 62
e 57 103
e 57 116
e 57 127
e 57 138
e 57 141
e 57 144
e 57 145
e 57 147
e 58 84
e 58 91
e 58 102
e 58 107
e 58 115
e 58 130
e 58 136
e 58 142
e 59 65
e 59 67
e 59 82
e 59 87
e 59 106
e 59 107
e 59 114
e 59 131
e 59 132
e 59 138
e 59 148
e 59 149
e 60 81
e 60 83
e 60 88
e 60 93
e 60 96
e 60 97
e 60 104
e 60 105
e 60 108
e 60 109
e 60 119
e 60 124
e 60 131
e 60 145
e 60 149
e 61 62
e 61 69
e 61 97
e 61 100
e 61 116
e 61 124
e 61 127
e 61 130
e 61 138
e 61 143
e 62 73
e 62 88
e 62 99
e 62 105
e 62 116
e 62 129
e 62 133
e 62 137
e 63 65
e 63 73
e 63 75
e 63 81
e 63 83
e 63 94
e 63 102
e 63 111
e 63 117
e 64 71
e 64 76
e 64 77
e 64 83
e 64 86
e 64 96
e 64 116
e 64 118
e 64 121
e 65 66
e 65 70
e 65 73
e 65 93
e 65 95
e 65 126
e 65 139
e 65 146
e 65 147
e 66 77
e 66 88
e 66 105
e 66 125
e 66 128
e 66 142
e 66 143
e 66 144
e 66 146
e 67 82
e 67 108
e 67 125
e 67 129
e 67 143
e 67 147
e 68 72
e 68 74
e 68 80
e 68 87
e 68 91
e 68 101
e 68 122
e 68 128
e 68 146
e 68 147
e 69 79
e 69 82
e 69 85
e 69 87
e 69 89
e 69 99
e 69 102
e 69 109
e 69 114
e 69 126
e 69 128
e 69 137
e 70 87
e 70 89
e 71 72
e 71 74
e 71 77
e 71 79
e 71 96
e 71 97
e 71 102
e 71 110
e 71 149
e 72 73
e 72 86
e 72 91
e 72 99
e 72 116
e 72 132
e 72 149
e 73 74
e 73 75
e 73 90
e 73 91
e 73 92
e 73 95
e 73 109
e 73 115
e 73 117
e 73 132
e 73 150
e 74 80
e 74 81
e 74 89
e 74 100
e 74 102
e 74 112
e 74 113
e 74 136
e 74 142
e 74 147
e 75 85
e 75 87
e 75 103
e 75 106
e 75 114
e 75 116
e 75 118
e 75 123
e 75 127
e 75 128
e 75 130
e 75 133
e 75 135
e 75 144
e 76 105
e 76 107
e 76 110
e 76 132
e 76 141
e 76 145
e 76 147
e 77 85
e 77 86
e 77 87
e 77 106
e 77 133
e 77 138
e 77 145
e 77 147
e 78 88
e 78 101
e 78 108
e 78 121
e 78 124
e 78 126
e 78 137
e 78 144
e 79 81
e 79 94
e 79 109
e 79 112
e 79 137
e 79 145
e 80 101
e 80 112
e 80 117
e 80 140
e 81 102
e 81 103
e 81 110
e 81 115
e 81 124
e 82 99
e 82 101
e 82 106
e 82 107
e 82 111
e 82 119
e 82 124
e 82 137
e 82 143
e 83 90
e 83 94
e 83 96
e 83 97
e 83 111
e 83 136
e 84 91
e 84 98
e 84 101
e 84 102
e 84 106
e 84 124
e 84 132
e 84 139
e 85 108
e 85 121
e 85 125
e 85 135
e 85 138
e 85 146
e 85 148
e 86 95
e 86 102
e 86 109
e 86 110
e 86 114
e 86 124
e 86 130
e 86 131
e 86 140
e 87 89
e 87 94
e 87 108
e 87 114
e 87 123
e 87 146
e 88 95
e 88 98
e 88 109
e 88 112
e 88 117
e 88 124
e 88 125
e 88 134
e 88 149
e 89 104
e 89 120
e 89 122
e 89 128
e 89 132
e 90 99
e 90 115
e 90 119
e 90 129
e 90 134
e 90 137
e 90 150
e 91 92
e 91 95
e 91 105
e 91 112
e 91 123
e 91 133
e 92 101
e 92 103
e 92 121
e 92 137
e 93 99
e 93 114
e 93 122
e 93 126
e 93 127
e 93 138
e 93 139
e 93 146
e 94 97
e 94 102
e 94 121
e 94 128
e 94 148
e 95 105
e 95 119
e 95 132
e 95 134
e 96 99
e 96 108
e 96 126
e 96 127
e 96 131
e 96 132
e 96 142
e 97 102
e 97 114
e 97 121
e 97 122
e 97 126
e 97 128
e 97 131
e 97 143
e 98 99
e 98 100
e 98 103
e 98 112
e 98 124
e 98 138
e 98 141
e 98 150
e 99 103
e 99 105
e 99 112
e 99 115
e 99 132
e 99 133
e 100 133
e 101 102
e 101 126
e 101 128
e 101 139
e 101 145
e 102 111
e 102 133
e 102 139
e 102 146
e 102 149
e 103 107
e 103 114
e 103 145
e 104 131
e 104 138
e 104 144
e 105 107
e 105 111
e 105 145
e 106 113
e 106 119
e 106 139
e 106 145
e 107 111
e 107 123
e 107 127
e 107 128
e 107 135
e 107 143
e 107 146
e 108 143
e 109 111
e 109 115
e 109 118
e 109 119
e 109 130
e 109 142
e 110 118
e 110 137
e 112 129
e 113 118
e 113 121
e 113 129
e 113 148
e 113 149
e 114 117
e 114 120
e 114 127
e 114 130
e 114 139
e 114 146
e 115 122
e 115 138
e 115 146
e 116 128
e 116 129
e 116 130
e 116 132
e 116 144
e 116 146
e 117 121
e 117 127
e 117 133
e 117 140
e 117 146
e 117 150
e 118 124
e 118 126
e 118 127
e 118 129
e 118 142
e 119 145
e 120 122
e 120 123
e 120 130
e 121 124
e 121 144
e 122 130
e 122 134
e 122 135
e 122 137
e 122 141
e 123 124
e 123 134
e 123 139
e 123 140
e 123 145
e 123 148
e 123 149
e 124 132
e 124 139
e 124 150
e 125 129
e 125 141
e 125 142
e 125 145
e 126 137
e 126 141
e 127 147
e 128 143
e 128 149
e 129 146
e 130 136
e 131 146
e 131 150
e 132 138
e 132 142
e 132 143
e 134 147
e 135 141
e 135 145
e 136 149
e 136 150
e 137 139
e 137 142
e 138 140
e 142 145
e 143 144
e 143 145
e 145 147
e 146 149
